(set-info :original "../out2/pointer_primitive_check_harness.c/pointer_primitive_check_harness0caf7.bc.txt")
(set-info :authors "SeaHorn v.10.0.0-rc0")
(declare-rel verifier.error (Bool Bool Bool ))
(declare-rel pointer_primitive_check_harness@_1 (Int ))
(declare-rel pointer_primitive_check_harness@.split (Int ))
(declare-rel pointer_primitive_check_harness (Bool Bool Bool ))
(declare-rel main@_tail ())
(declare-rel main@.split ())
(declare-var pointer_primitive_check_harness@%_3_0 Int )
(declare-var @__CPROVER_r_ok_0 Int )
(declare-var pointer_primitive_check_harness@_1_0 Bool )
(declare-var pointer_primitive_check_harness@.split_0 Bool )
(declare-var main@_tail_0 Bool )
(declare-var main@.split_0 Bool )
(rule (verifier.error false false false))
(rule (verifier.error false true true))
(rule (verifier.error true false true))
(rule (verifier.error true true true))
(rule (pointer_primitive_check_harness true true true))
(rule (pointer_primitive_check_harness false true true))
(rule (pointer_primitive_check_harness false false false))
(rule (pointer_primitive_check_harness@_1 @__CPROVER_r_ok_0))
(rule (=> (and (pointer_primitive_check_harness@_1 @__CPROVER_r_ok_0)
         true
         (= pointer_primitive_check_harness@%_3_0 @__CPROVER_r_ok_0)
         (=> pointer_primitive_check_harness@.split_0
             (and pointer_primitive_check_harness@.split_0
                  pointer_primitive_check_harness@_1_0))
         pointer_primitive_check_harness@.split_0)
    (pointer_primitive_check_harness@.split @__CPROVER_r_ok_0)))
(rule (=> (pointer_primitive_check_harness@.split @__CPROVER_r_ok_0)
    (pointer_primitive_check_harness true false false)))
(rule main@_tail)
(rule (=> (and main@_tail
         true
         (pointer_primitive_check_harness true false false)
         (=> main@.split_0 (and main@.split_0 main@_tail_0))
         main@.split_0)
    main@.split))
(query main@.split)

